\ This file was automatically generated by Zimpl
\ var w1 >= 0;
\ var w2 <= 0;
\ maximize Z :      2*w1 - 2*w2;
\ subto r1:     1*w1 + 1*w2 >= 1;
\ subto r2:     -1*w1 - 1*w2 >= -1;
\Problem name: pd
Maximize
 Z:  +2 w1 -2 w2
Subject to
 r1_1:
  + w2 + w1 >= 1
 r2_1:
  - w2 - w1 >= -1
Bounds
 0 <= w1 <= +inf
 w2 = 0
End
